[2026-03-24T18:00:54.366Z] Pipeline "set_vm-4-t1_vm-4-t1_s024_g002" → 2026_03_24_18_00_54_set_vm-4-t1_vm-4-t1_s024_g002_max.sol
Set parameter Username
Set parameter LicenseID to value 2797659
Set parameter LogFile to value "gurobi.log"
Using license file /opt/gurobi/gurobi.lic
Academic license - for non-commercial use only - expires 2027-03-24

Gurobi Optimizer version 13.0.1 build v13.0.1rc0 (linux64 - "Ubuntu 24.04.4 LTS")
Copyright (c) 2026, Gurobi Optimization, LLC

Warning: Duplicate section found (read 'binary') - Is a variable name equal to an LP file format keyword?
Warning: Duplicate section found (read 'binary') - Is a variable name equal to an LP file format keyword?
Warning: Duplicate section found (read 'binary') - Is a variable name equal to an LP file format keyword?
Warning: Duplicate section found (read 'binary') - Is a variable name equal to an LP file format keyword?
Warning: Duplicate section found (read 'binary') - Is a variable name equal to an LP file format keyword?
Warning: Duplicate section found (read 'binary') - Is a variable name equal to an LP file format keyword?
Warning: Duplicate section found (read 'binary') - Is a variable name equal to an LP file format keyword?
Warning: Duplicate section found (read 'binary') - Is a variable name equal to an LP file format keyword?
Warning: Duplicate section found (read 'binary') - Is a variable name equal to an LP file format keyword?
Warning: Duplicate section found (read 'binary') - Is a variable name equal to an LP file format keyword?
Warning: Further warnings of this type will be omitted.
Read LP format model from file /root/bgw/data/uploads/2026_03_24_18_00_54_set_vm-4-t1_vm-4-t1_s024_g002_max.lp
Reading time = 0.05 seconds
: 50094 rows, 1585 columns, 152658 nonzeros

Using Gurobi shared library /opt/gurobi1301/linux64/lib/libgurobi.so.13.0.1

CPU model: AMD EPYC-Genoa Processor, instruction set [SSE2|AVX|AVX2|AVX512]
Thread count: 16 physical cores, 16 logical processors, using up to 16 threads

Optimize a model with 50094 rows, 1585 columns and 152658 nonzeros (Max)
Model fingerprint: 0xa609a3fa
Model has 16 linear objective coefficients
Variable types: 70 continuous, 1515 integer (1515 binary)
Coefficient statistics:
  Matrix range     [1e+00, 6e+01]
  Objective range  [1e+00, 1e+00]
  Bounds range     [1e+00, 1e+00]
  RHS range        [1e+00, 6e+01]

Found heuristic solution: objective 16.0000000
Presolve removed 461 rows and 139 columns
Presolve time: 0.18s
Presolved: 49633 rows, 1446 columns, 149154 nonzeros
Variable types: 0 continuous, 1446 integer (1441 binary)
Root relaxation presolved: 24829 rows, 26250 columns, 99546 nonzeros


Root relaxation: objective 8.600000e+01, 307 iterations, 0.13 seconds (0.16 work units)

    Nodes    |    Current Node    |     Objective Bounds      |     Work
 Expl Unexpl |  Obj  Depth IntInf | Incumbent    BestBd   Gap | It/Node Time

     0     0   86.00000    0   17   16.00000   86.00000   438%     -    0s
H    0     0                      44.0000000   86.00000  95.5%     -    0s
     0     0   86.00000    0   15   44.00000   86.00000  95.5%     -    0s
     0     0   86.00000    0   15   44.00000   86.00000  95.5%     -    0s
     0     0   86.00000    0   13   44.00000   86.00000  95.5%     -    0s
     0     0   86.00000    0   13   44.00000   86.00000  95.5%     -    0s
     0     0   86.00000    0   13   44.00000   86.00000  95.5%     -    1s
     0     0   85.86538    0   16   44.00000   85.86538  95.1%     -    1s
     0     0   85.86538    0   16   44.00000   85.86538  95.1%     -    1s
     0     0   79.00000    0   16   44.00000   79.00000  79.5%     -    1s
     0     0   79.00000    0   13   44.00000   79.00000  79.5%     -    1s
     0     0   79.00000    0   13   44.00000   79.00000  79.5%     -    1s
     0     0   79.00000    0   15   44.00000   79.00000  79.5%     -    1s
     0     0   79.00000    0   15   44.00000   79.00000  79.5%     -    1s
     0     0   79.00000    0   13   44.00000   79.00000  79.5%     -    1s
     0     0   79.00000    0   16   44.00000   79.00000  79.5%     -    1s
     0     0   79.00000    0   16   44.00000   79.00000  79.5%     -    1s
     0     0   79.00000    0   16   44.00000   79.00000  79.5%     -    1s
     0     0   79.00000    0   14   44.00000   79.00000  79.5%     -    1s
     0     0   79.00000    0   15   44.00000   79.00000  79.5%     -    1s
     0     0   79.00000    0   15   44.00000   79.00000  79.5%     -    1s
     0     0   79.00000    0   15   44.00000   79.00000  79.5%     -    1s
     0     0   79.00000    0   15   44.00000   79.00000  79.5%     -    1s
     0     2   79.00000    0   15   44.00000   79.00000  79.5%     -    2s
   230   105 infeasible   12        44.00000   79.00000  79.5%   222    5s
   638   113 infeasible   11        44.00000   76.97654  74.9%   329   10s
  1200     0 infeasible   14        44.00000   51.00000  15.9%   311   15s

Cutting planes:
  Gomory: 2
  Cover: 11
  MIR: 4
  Inf proof: 17
  Zero half: 6

Explored 1206 nodes (376294 simplex iterations) in 15.08 seconds (26.55 work units)
Thread count was 16 (of 16 available processors)

Solution count 2: 44 16 

Optimal solution found (tolerance 1.00e-04)
Best objective 4.400000000000e+01, best bound 4.400000000000e+01, gap 0.0000%

Wrote result file '/root/bgw/data/results/2026_03_24_18_00_54_set_vm-4-t1_vm-4-t1_s024_g002_max.sol'

